NAME: pr107
DIMENSION: 19
EDGE_WEIGHT_TYPE: EUC_2D
NODE_COORD_SECTION
1 8375 4700
2 8775 4700
3 8375 4900
4 8175 4900
5 8775 4900
6 8575 4900
7 8775 5400
8 8375 5450
9 8775 5600
10 8575 5600
11 8375 5650
12 8175 5650
13 8375 6200
14 8775 6200
15 8375 6400
16 8175 6400
17 8775 6400
18 8575 6400
19 8375 7000
ACCEPTED_PROBABILITIES
0.0
0.83
0.92
0.88
0.82
0.88
0.67
0.69
0.59
0.62
0.61
0.6
0.38
0.36
0.3
0.29
0.28
0.29
0.05
OUTSOURCING_COSTS
0.0
22.22
11.11
15.72
24.83
15.72
44.78
41.67
54.72
51.22
52.78
53.94
83.33
86.22
94.44
95.11
97.0
95.11
127.78
